results/res_prop_muc/res_Cimatti_mathsat_cores/QF_LIA/MULTIPLIER_2.msat.smt.smt2.res
unsat
( c0
  c10
  c11
  c12
  c15
  c16
  c17
  c18
  c19
  c2
  c20
  c23
  c24
  c26
  c27
  c28
  c29
  c3
  c30
  c31
  c32
  c33
  c34
  c35
  c36
  c37
  c38
  c39
  c4
  c40
  c41
  c42
  c43
  c46
  c47
  c49
  c5
  c50
  c6
  c7
  c8
  c9 )
